SCIP version 5.0.0 [precision: 8 byte] [memory: block] [mode: optimized] [LP solver: NONE] [GitHash: 3bbd232]
Copyright (C) 2002-2017 Konrad-Zuse-Zentrum fuer Informationstechnik Berlin (ZIB)

External codes: 
  Readline EditLine w  GNU library for command line editing (gnu.org/s/readline)
  CppAD 20160000.1     Algorithmic Differentiation of C++ algorithms developed by B. Bell (www.coin-or.org/CppAD)
  ZLIB 1.2.5           General purpose compression library by J. Gailly and M. Adler (zlib.net)
  GMP 6.1.2            GNU Multiple Precision Arithmetic Library developed by T. Granlund (gmplib.org)

user parameter file <scip.set> not found - using default parameters

read problem <../../Split_data/output/statG/5/4_sample_statG.logreg>
============

File name	:	../../Split_data/output/statG/5/4_sample_statG.logreg
Problem name 	:	4_sample_statG
Number of data	:	800
Number of var	:	61
The given data has linear dependence
13 sets of column vector are linearly dependent:

[dim=1] time: 0.03405
[dim=2] time: 0.075519
[dim=3] time: 0.123887
[dim=4] time: 0.172915
[dim=5] time: 0.215971
[dim=6] time: 0.266181
[dim=7] time: 0.308371
[dim=8] time: 0.350185
[dim=9] time: 0.392659
[dim=10] time: 0.441635
[dim=11] time: 0.483265
[dim=12] time: 0.525113
[dim=13] time: 0.567834
[dim=14] time: 0.609622
[dim=15] time: 0.650124
[dim=16] time: 0.695438
[dim=17] time: 0.741877
[dim=18] time: 0.786248
[dim=19] time: 0.827015
[dim=20] time: 0.885003
[dim=21] time: 0.930829
[dim=22] time: 1.02704
[dim=23] time: 1.07395
[dim=24] time: 1.11231
[dim=25] time: 1.15865
[dim=26] Time of forward = 1.19849sec.
AIC: 736.17
k: 25

[dim=48] time: 0.183501
[dim=47] time: 0.243715
[dim=46] time: 0.419182
[dim=45] time: 0.517622
[dim=44] time: 0.685723
[dim=43] time: 0.748139
[dim=42] time: 0.903934
[dim=41] time: 1.01904
[dim=40] time: 1.12191
[dim=39] time: 1.20815
[dim=38] time: 1.31558
[dim=37] time: 1.42029
[dim=36] time: 1.50303
[dim=35] time: 1.61118
[dim=34] time: 1.69812
[dim=33] time: 1.79472
[dim=32] time: 1.86462
[dim=31] time: 1.91979
[dim=30] time: 1.98904
[dim=29] time: 2.05451
[dim=28] time: 2.11782
[dim=27] Time of backward = 2.16912sec.
AIC: 740.553
k: 28
